54297
24 30 299
30 10 732
10 44 436
44 51 722
51 14 631
14 15 556
15 35 938
35 45 402
45 38 214
38 9 941
9 21 117
21 28 544
28 20 516
20 22 176
22 16 619
16 18 1205
18 40 1369
40 31 362
31 7 678
7 43 383
43 37 690
37 49 1180
49 19 763
19 23 740
23 34 296
34 4 323
4 36 467
36 6 517
6 39 1176
39 50 1042
50 12 644
12 42 790
42 2 1096
2 5 385
5 27 404
27 54 487
54 25 397
25 48 560
48 47 761
47 52 1095
52 33 396
33 53 401
53 46 491
46 29 944
29 3 380
3 17 606
17 11 768
11 8 723
8 13 471
13 1 433
1 41 1722
41 32 4807
32 0 7621
0 26 4123
26 24 4758
